unsat
(:max-memory         18.43
 :memory             18.33
 :nlsat-arith-var    3
 :nlsat-atoms        11
 :nlsat-bool-var     1
 :nlsat-clauses      10
 :nlsat-conflicts    1
 :nlsat-propagations 3
 :nlsat-stages       1
 :num-allocs         51608
 :rlimit-count       3376
 :time               0.00
 :total-time         0.01)
